\ This file has been generated by DOcplex
\ ENCODING=ISO-8859-1
\Problem name: Orandom17842_6.lp

Minimize
 obj: - 39.999999576661 x0 - 19.999999788330 x1 - 9.999999894165 x2
      - 19.999999576661 x3 - 9.999999788330 x4 - 4.999999894165 x5 + [
      15.999999758092 x0^2 + 15.999999758092 x0*x1 + 7.999999879046 x0*x2
      + 31.999999516184 x0*x3 + 15.999999758092 x0*x4 + 7.999999879046 x0*x5
      + 3.999999939523 x1^2 + 3.999999939523 x1*x2 + 15.999999758092 x1*x3
      + 7.999999879046 x1*x4 + 3.999999939523 x1*x5 + 0.999999984881 x2^2
      + 7.999999879046 x2*x3 + 3.999999939523 x2*x4 + 1.999999969761 x2*x5
      + 47.999999758092 x3^2 + 47.999999758092 x3*x4 + 23.999999879046 x3*x5
      + 11.999999939523 x4^2 + 11.999999939523 x4*x5 + 2.999999984881 x5^2 ]/2 +
      24.499999629578
Subject To

Bounds
 0 <= x0 <= 1
 0 <= x1 <= 1
 0 <= x2 <= 1
 0 <= x3 <= 1
 0 <= x4 <= 1
 0 <= x5 <= 1

Binaries
 x0 x1 x2 x3 x4 x5
End
